3095.00 0
0 57 41 45 42 48 50 49 47 40 38 44 43 58 0
0 133 73 72 67 121 131 130 64 0
0 76 77 85 90 88 75 93 95 96 94 0
0 52 59 53 0
0 51 46 39 66 74 70 68 65 71 69 129 61 0
0 109 97 110 111 106 0
0 112 105 103 99 101 15 8 4 11 12 150 13 14 1 6 102 107 0
0 36 25 29 24 30 19 22 21 0
0 137 80 92 89 79 83 78 86 91 81 82 87 0
0 18 20 35 33 28 26 31 32 23 0
0 118 126 128 116 122 117 114 113 124 119 37 34 27 0
0 135 115 123 127 120 125 134 132 136 0
0 145 138 148 141 140 147 142 84 144 139 149 0
0 63 55 60 62 54 56 0
0 146 143 2 16 5 17 9 3 10 7 104 108 98 100 0
